results/x-long/X-n157-k13.vrp_seed-8.vrp.sol
Route #1: 34 138 25 155 22 30 74 79 84 33 48 72
Route #2: 15 147 118 20 68 36 103 93 99 69 122 38
Route #3: 18 107 52 134 10 39 58 29 114 109 60 12
Route #4: 41 110 54 121 21 135 73 106 3 42 32 143
Route #5: 126 1 117 9 108 40 80 146 78 125 139 70
Route #6: 92 137 7 28 66 94 86 132 111 102 96 59
Route #7: 101 27 44 124 130 104 127 145 46 19 116 37
Route #8: 71 149 8 150 156 24 43 141 64 63 13 148
Route #9: 88 57 2 119 81 89 112 136 76 153 5 47
Route #10: 49 14 120 26 128 142 62 97 87 65 16 75
Route #11: 129 91 100 51 90 83 45 77 11 82 113 151
Route #12: 17 67 4 35 6 115 55 95 105 152 56 61
Route #13: 23 31 140 85 144 53 123 98 154 50 133 131
Cost 16876.000000